Set parameter TokenServer to value "hpc-licenses.hpcc.usc.edu"
Set parameter TimeLimit to value 3600
Gurobi Optimizer version 9.5.1 build v9.5.1rc2 (linux64)
Thread count: 20 physical cores, 20 logical processors, using up to 20 threads
Optimize a model with 6007 rows, 4529 columns and 24534 nonzeros
Model fingerprint: 0x57351a90
Variable types: 4506 continuous, 23 integer (23 binary)
Coefficient statistics:
  Matrix range     [1e+00, 1e+00]
  Objective range  [2e-04, 1e+01]
  Bounds range     [1e+00, 1e+00]
  RHS range        [1e+00, 8e+01]
Presolve removed 1520 rows and 1515 columns
Presolve time: 0.06s
Presolved: 4487 rows, 3014 columns, 21975 nonzeros
Variable types: 2994 continuous, 20 integer (20 binary)
Found heuristic solution: objective 285.1304399
Found heuristic solution: objective 290.2427144

Root relaxation: objective 3.022581e+02, 2609 iterations, 0.09 seconds (0.10 work units)

    Nodes    |    Current Node    |     Objective Bounds      |     Work
 Expl Unexpl |  Obj  Depth IntInf | Incumbent    BestBd   Gap | It/Node Time

     0     0  302.25810    0    2  290.24271  302.25810  4.14%     -    0s
     0     0  302.12642    0    2  290.24271  302.12642  4.09%     -    0s
     0     0  301.98592    0    2  290.24271  301.98592  4.05%     -    0s
     0     0  299.71576    0    2  290.24271  299.71576  3.26%     -    0s
     0     0  298.56958    0    5  290.24271  298.56958  2.87%     -    0s
     0     0  298.55302    0    5  290.24271  298.55302  2.86%     -    0s
     0     0  298.53195    0    5  290.24271  298.53195  2.86%     -    0s
     0     0  298.51840    0    5  290.24271  298.51840  2.85%     -    0s
     0     0  298.50655    0    6  290.24271  298.50655  2.85%     -    0s
     0     0  298.49927    0    6  290.24271  298.49927  2.84%     -    0s
     0     0  298.46258    0    6  290.24271  298.46258  2.83%     -    0s
     0     0  298.45967    0    6  290.24271  298.45967  2.83%     -    0s
     0     0  298.45967    0    6  290.24271  298.45967  2.83%     -    0s
     0     0  298.45967    0    6  290.24271  298.45967  2.83%     -    0s
     0     0  298.45967    0    6  290.24271  298.45967  2.83%     -    0s
     0     0  298.45357    0    6  290.24271  298.45357  2.83%     -    0s
     0     0  298.44860    0    6  290.24271  298.44860  2.83%     -    0s
     0     0  298.43919    0    6  290.24271  298.43919  2.82%     -    0s
     0     0  298.43249    0    6  290.24271  298.43249  2.82%     -    0s
     0     0  298.42922    0    6  290.24271  298.42922  2.82%     -    0s
     0     0  298.36429    0    6  290.24271  298.36429  2.80%     -    0s
     0     0  298.36429    0    2  290.24271  298.36429  2.80%     -    1s
     0     0  298.36429    0    2  290.24271  298.36429  2.80%     -    2s
     0     0  298.36429    0    5  290.24271  298.36429  2.80%     -    2s
     0     0  298.33938    0    5  290.24271  298.33938  2.79%     -    2s
     0     0  298.32189    0    5  290.24271  298.32189  2.78%     -    2s
     0     0  298.29948    0    5  290.24271  298.29948  2.78%     -    2s
     0     0  298.27681    0    5  290.24271  298.27681  2.77%     -    2s
     0     0  296.09275    0    5  290.24271  296.09275  2.02%     -    2s
     0     0  296.09275    0    4  290.24271  296.09275  2.02%     -    2s
     0     0  295.95194    0    6  290.24271  295.95194  1.97%     -    2s
     0     0  295.90381    0    4  290.24271  295.90381  1.95%     -    2s
H    0     0                     290.6853974  295.90381  1.80%     -    2s
     0     0  295.55997    0    4  290.68540  295.55997  1.68%     -    2s
     0     0  295.55997    0    4  290.68540  295.55997  1.68%     -    2s
     0     2  295.55997    0    4  290.68540  295.55997  1.68%     -    3s
    18     2  293.47754   10    2  290.68540  294.38760  1.27%   129    5s

Cutting planes:
  Gomory: 2
  MIR: 480
  Flow cover: 67
  RLT: 7
  Relax-and-lift: 1

Explored 24 nodes (9469 simplex iterations) in 5.31 seconds (2.06 work units)
Thread count was 20 (of 20 available processors)

Solution count 3: 290.685 290.243 285.13 

Optimal solution found (tolerance 1.00e-04)
Best objective 2.906853973947e+02, best bound 2.906853973947e+02, gap 0.0000%



#########node  1
V2.8
#########node  2
0.2201834862385321,0.7798165137614679
#########node  3
1.0,0.0


Total Solving Time 5.759948253631592
obj value 290.6853973946824
Policy Regret train (Sum) 15.686538167752374
Best Treatment Found train (%) 47.8
treatment classification acc train (%) 51.2
Policy Regret test (Sum) 224.60131627329972
Best Treatment Found test (%) 53.300000000000004
treatment classification acc test (%) 49.95
